TCS_Benchmarks/redos_fix/snort1_output_distinct_2569_2568_0_0.txt
([^\n\r]*)([^\n\r]*)
([^\n\r]*)([uU][rR][lL]=)([^\n\r]*)